N = 7;
H = 5;
T = 2;

avail = array3d(1..N, 1..H, 1..T, [10, 4, 2, 7, 10, 4, 8, 2, 6, 1, 2, 4, 8, 7, 10, 4, 4, 6, 1, 10, 1, 6, 5, 3, 5, 9, 8, 2, 4, 9, 7, 8, 9, 0, 0, 4, 8, 6, 9, 7, 1, 4, 0, 3, 7, 5, 0, 4, 5, 10, 9, 4, 2, 3, 6, 8, 4, 5, 2, 3, 8, 4, 5, 8, 1, 2, 8, 1, 4, 1]);

r = array2d(1..H, 1..T, [2, 3, 4, 2, 2, 3, 3, 2, 1, 0]);
